\ENCODING=ISO-8859-1
\Problem name: GMKP - Concert Technologies

Maximize
 obj: 11 x_1_1 + 90 x_1_2 + 90 x_1_3 + 52 x_1_4 + 49 x_1_5 + 22 x_1_6
      + 44 x_1_7 + 75 x_1_8 + 77 x_1_9 + 21 x_1_10 + 89 x_1_11 + 48 x_1_12
      + 23 x_1_13 + 16 x_1_14 + 32 x_1_15 + 13 x_1_16 + 30 x_1_17 + 95 x_1_18
      + 93 x_1_19 + 61 x_1_20 + 12 x_1_21 + 54 x_1_22 + 27 x_1_23 + 75 x_1_24
      + 21 x_1_25 + 26 x_2_1 + 74 x_2_2 + 51 x_2_3 + 67 x_2_4 + 43 x_2_5
      + 23 x_2_6 + 28 x_2_7 + 60 x_2_8 + 16 x_2_9 + 24 x_2_10 + 31 x_2_11
      + 91 x_2_12 + 89 x_2_13 + 14 x_2_14 + 62 x_2_15 + 67 x_2_16 + 94 x_2_17
      + 22 x_2_18 + 61 x_2_19 + 96 x_2_20 + 88 x_2_21 + 15 x_2_22 + 76 x_2_23
      + 93 x_2_24 + 32 x_2_25
Subject To
 capacity_1:            92 x_1_1 + 98 x_1_2 + 93 x_1_3 + 57 x_1_4 + 73 x_1_5
                        + 59 x_1_6 + 44 x_1_7 + 96 x_1_8 + 86 x_1_9 + 76 x_1_10
                        + 42 x_1_11 + 58 x_1_12 + 52 x_1_13 + 57 x_1_14
                        + 38 x_1_15 + 71 x_1_16 + 31 x_1_17 + 37 x_1_18
                        + 84 x_1_19 + 89 x_1_20 + 16 x_1_21 + 72 x_1_22
                        + 31 x_1_23 + 100 x_1_24 + 11 x_1_25 + 57 y_1_1
                        + 98 y_1_2 + 83 y_1_3 + 86 y_1_4 + 57 y_1_5 <= 673
 capacity_2:            92 x_2_1 + 98 x_2_2 + 93 x_2_3 + 57 x_2_4 + 73 x_2_5
                        + 59 x_2_6 + 44 x_2_7 + 96 x_2_8 + 86 x_2_9 + 76 x_2_10
                        + 42 x_2_11 + 58 x_2_12 + 52 x_2_13 + 57 x_2_14
                        + 38 x_2_15 + 71 x_2_16 + 31 x_2_17 + 37 x_2_18
                        + 84 x_2_19 + 89 x_2_20 + 16 x_2_21 + 72 x_2_22
                        + 31 x_2_23 + 100 x_2_24 + 11 x_2_25 + 57 y_2_1
                        + 98 y_2_2 + 83 y_2_3 + 86 y_2_4 + 57 y_2_5 <= 673
 max_one_bin_1:         y_1_1 + y_2_1 <= 1
 max_one_bin_2:         y_1_2 + y_2_2 <= 1
 max_one_bin_3:         y_1_3 + y_2_3 <= 1
 max_one_bin_4:         y_1_4 + y_2_4 <= 1
 max_one_bin_5:         y_1_5 + y_2_5 <= 1
 dependent_decision_1:  x_1_1 + x_1_14 + x_1_15 + x_1_16 - 25 y_1_1 <= 0
 dependent_decision_2:  x_1_2 + x_1_11 + x_1_13 + x_1_19 + x_1_23 + x_1_25
                        - 25 y_1_2 <= 0
 dependent_decision_3:  x_1_3 + x_1_6 + x_1_8 + x_1_9 + x_1_12 + x_1_18
                        + x_1_20 + x_1_24 - 25 y_1_3 <= 0
 dependent_decision_4:  x_1_4 + x_1_10 + x_1_17 + x_1_21 - 25 y_1_4 <= 0
 dependent_decision_5:  x_1_5 + x_1_7 + x_1_22 - 25 y_1_5 <= 0
 dependent_decision_6:  x_2_1 + x_2_14 + x_2_15 + x_2_16 - 25 y_2_1 <= 0
 dependent_decision_7:  x_2_2 + x_2_11 + x_2_13 + x_2_19 + x_2_23 + x_2_25
                        - 25 y_2_2 <= 0
 dependent_decision_8:  x_2_3 + x_2_6 + x_2_8 + x_2_9 + x_2_12 + x_2_18
                        + x_2_20 + x_2_24 - 25 y_2_3 <= 0
 dependent_decision_9:  x_2_4 + x_2_10 + x_2_17 + x_2_21 - 25 y_2_4 <= 0
 dependent_decision_10: x_2_5 + x_2_7 + x_2_22 - 25 y_2_5 <= 0
Bounds
 0 <= x_1_1 <= 1
 0 <= x_1_2 <= 1
 0 <= x_1_3 <= 1
 0 <= x_1_4 <= 1
 0 <= x_1_5 <= 1
 0 <= x_1_6 <= 1
 0 <= x_1_7 <= 1
 0 <= x_1_8 <= 1
 0 <= x_1_9 <= 1
 0 <= x_1_10 <= 1
 0 <= x_1_11 <= 1
 0 <= x_1_12 <= 1
 0 <= x_1_13 <= 1
 0 <= x_1_14 <= 1
 0 <= x_1_15 <= 1
 0 <= x_1_16 <= 1
 0 <= x_1_17 <= 1
 0 <= x_1_18 <= 1
 0 <= x_1_19 <= 1
 0 <= x_1_20 <= 1
 0 <= x_1_21 <= 1
 0 <= x_1_22 <= 1
 0 <= x_1_23 <= 1
 0 <= x_1_24 <= 1
 0 <= x_1_25 <= 1
 0 <= x_2_1 <= 1
 0 <= x_2_2 <= 1
 0 <= x_2_3 <= 1
 0 <= x_2_4 <= 1
 0 <= x_2_5 <= 1
 0 <= x_2_6 <= 1
 0 <= x_2_7 <= 1
 0 <= x_2_8 <= 1
 0 <= x_2_9 <= 1
 0 <= x_2_10 <= 1
 0 <= x_2_11 <= 1
 0 <= x_2_12 <= 1
 0 <= x_2_13 <= 1
 0 <= x_2_14 <= 1
 0 <= x_2_15 <= 1
 0 <= x_2_16 <= 1
 0 <= x_2_17 <= 1
 0 <= x_2_18 <= 1
 0 <= x_2_19 <= 1
 0 <= x_2_20 <= 1
 0 <= x_2_21 <= 1
 0 <= x_2_22 <= 1
 0 <= x_2_23 <= 1
 0 <= x_2_24 <= 1
 0 <= x_2_25 <= 1
 0 <= y_1_1 <= 1
 0 <= y_1_2 <= 1
 0 <= y_1_3 <= 1
 0 <= y_1_4 <= 1
 0 <= y_1_5 <= 1
 0 <= y_2_1 <= 1
 0 <= y_2_2 <= 1
 0 <= y_2_3 <= 1
 0 <= y_2_4 <= 1
 0 <= y_2_5 <= 1
Binaries
 x_1_1  x_1_2  x_1_3  x_1_4  x_1_5  x_1_6  x_1_7  x_1_8  x_1_9  x_1_10  x_1_11 
 x_1_12  x_1_13  x_1_14  x_1_15  x_1_16  x_1_17  x_1_18  x_1_19  x_1_20 
 x_1_21  x_1_22  x_1_23  x_1_24  x_1_25  x_2_1  x_2_2  x_2_3  x_2_4  x_2_5 
 x_2_6  x_2_7  x_2_8  x_2_9  x_2_10  x_2_11  x_2_12  x_2_13  x_2_14  x_2_15 
 x_2_16  x_2_17  x_2_18  x_2_19  x_2_20  x_2_21  x_2_22  x_2_23  x_2_24 
 x_2_25  y_1_1  y_1_2  y_1_3  y_1_4  y_1_5  y_2_1  y_2_2  y_2_3  y_2_4  y_2_5 
End
